!HF 6-31G*

*xyz 1 2
O   -0.46100   1.05200   4.73200
C   -0.62300   0.69400   3.45800
C   -1.68300   1.20900   2.71900
C    0.28600  -0.23800   2.84900
O    1.26100  -0.66600   3.66300
C    0.11700  -0.62500   1.51300
C   -0.93400  -0.09000   0.79000
C   -1.86000   0.81300   1.39100
C   -2.99600   1.33300   0.58900
O   -3.95500   1.88700   1.43700
C   -2.50600   2.54500  -0.44200
N   -1.71100   2.20800  -1.54600
H    0.30400   0.59100   5.12300
H   -2.38300   1.88200   3.19900
H    1.85000  -1.31100   3.23500
H    0.80800  -1.32800   1.05700
H   -1.06200  -0.37300  -0.25100
H   -3.40400   0.55200  -0.06900
H   -4.77000   2.06900   0.94200
H   -2.01000   3.27600   0.20000
H   -3.46000   2.95900  -0.78700
H   -0.71500   2.07500  -1.43900
H   -2.12400   1.77100  -2.35800
*
